results/res_prop_muc/res_Cimatti_mathsat_cores/QF_RDL/fischer9-mutex-1.smt.smt2.res
unsat
( c10
  c1006
  c107
  c11
  c1150
  c1152
  c1155
  c1156
  c1158
  c1160
  c1162
  c1164
  c1166
  c117
  c1179
  c1183
  c1187
  c1191
  c1195
  c1199
  c12
  c1203
  c1207
  c1211
  c1214
  c1215
  c1218
  c1219
  c1222
  c1223
  c1226
  c1227
  c1230
  c1231
  c1234
  c1235
  c1239
  c1241
  c1247
  c126
  c13
  c14
  c141
  c146
  c15
  c158
  c16
  c164
  c165
  c168
  c17
  c172
  c174
  c177
  c18
  c180
  c183
  c186
  c19
  c197
  c20
  c206
  c21
  c216
  c225
  c237
  c249
  c255
  c256
  c259
  c263
  c265
  c268
  c271
  c274
  c277
  c288
  c297
  c307
  c31
  c316
  c328
  c340
  c346
  c347
  c350
  c354
  c356
  c359
  c362
  c365
  c368
  c379
  c388
  c39
  c398
  c4
  c407
  c419
  c431
  c437
  c438
  c441
  c445
  c447
  c450
  c453
  c456
  c459
  c47
  c470
  c479
  c489
  c498
  c5
  c510
  c522
  c528
  c529
  c532
  c536
  c538
  c541
  c544
  c547
  c55
  c550
  c561
  c570
  c580
  c589
  c6
  c601
  c613
  c619
  c620
  c623
  c627
  c629
  c63
  c632
  c635
  c638
  c641
  c652
  c661
  c671
  c680
  c692
  c7
  c704
  c71
  c710
  c711
  c714
  c717
  c720
  c723
  c726
  c729
  c732
  c743
  c75
  c752
  c762
  c771
  c783
  c79
  c795
  c8
  c801
  c802
  c805
  c808
  c811
  c814
  c817
  c820
  c823
  c834
  c843
  c853
  c862
  c87
  c874
  c886
  c892
  c893
  c896
  c899
  c9
  c902
  c905
  c908
  c911
  c914
  c924
  c942
  c95
  c950
  c958
  c966
  c974
  c98
  c982
  c986
  c998 )
